56.0 113.0
56.0 105.0
104.0 97.0
104.0 105.0
104.0 113.0
104.0 121.0
172.0 125.0
172.0 117.0
172.0 109.0
172.0 101.0
172.0 93.0
172.0 85.0
180.0 85.0
180.0 77.0
180.0 69.0
180.0 61.0
180.0 53.0
172.0 53.0
172.0 61.0
172.0 69.0
172.0 77.0
164.0 81.0
148.0 85.0
124.0 85.0
124.0 93.0
124.0 109.0
124.0 125.0
124.0 117.0
124.0 101.0
104.0 89.0
104.0 81.0
104.0 73.0
104.0 65.0
104.0 57.0
124.0 69.0
124.0 77.0
132.0 81.0
140.0 65.0
132.0 61.0
124.0 61.0
204.0 57.0
212.0 117.0
204.0 109.0
196.0 101.0
188.0 93.0
180.0 93.0
180.0 101.0
180.0 109.0
180.0 117.0
180.0 125.0
